50
    57    68    43    69    24    44    58    12    87     8    63    32    26    58    33    83    35    33     7    13    25    14    93    60    22    20    59    52    66    13    44     7    16    94    50    36    44     5    45    37    38    31    63     3     2    93     2    14    56    56
     8     2     7     3    10     9     3     1     5     7     4     4     1     4     6     7     8     2     4     2     2    10     3     9     6     5     7     4     4     2    10     1     6    10     7     1     8     9     1     1     9     3     4     8     3     7     1     4    10     9
   138   167   297   845   222    91   101   553   665   200   392   873   891  1003   351   150   150   219   886   856   867   423     0    49   544   425     0   949     0   495   114   987   974   983   250   966   480   309   761   348   148   812     0   384   252   722   674   605     0     0
